/*********************************************
 * OPL 12.6.0.0 Data
 * Author: Adrian Rodriguez Bazaga, Pau Rodriguez Esmerats
 * Creation Date: 06/12/2017 at 23:03:07
 *********************************************/

nNurses=276;
maxConsec=2;
maxPresence=7;
maxHours=5;
minHours=1;
hours=24;
demand= [50 44 69 71 44 69 71 46 44 26 4 6 6 8 7 6 5 3 3 2 35 67 33 61  ];
